#pLT is two-dimensional [i,r]=[component, individual]
#[i,*] means all data in row i.

param pLT := 
[1,*]
1  0    2  9    3  5    4  6    5  6    6  4    

[2,*]
1  4    2  4    3  4    4  4    5  3    6  4    
;